148	32	4	77	
10	10	10	10

0	0	0	0	0	0	4	1	10	16	30
1	0	1	1	1	1	2	29	2
2	1	0	5	1	4	1	3
3	2	5	5	0	7	3	27	24	4
4	0	4	2	4	1	3	26	25	5
5	7	4	0	6	4	1	6
6	1	0	5	7	8	3	23	22	7
7	0	2	6	4	6	2	21	8
8	5	6	3	0	1	2	20	9
9	7	4	2	0	8	2	19	11
10	0	3	4	5	2	3	24	18	12
11	3	0	7	2	2	2	18	12
12	4	4	3	0	6	1	13
13	2	2	0	6	7	1	14
14	0	6	3	2	4	1	15
15	0	2	5	4	8	1	17
16	0	3	2	4	7	1	28
17	8	5	0	2	3	1	31
18	1	4	5	0	3	1	31
19	3	3	0	7	8	1	31
20	6	6	0	4	5	1	31
21	6	6	0	6	3	1	31
22	7	0	3	1	1	1	31
23	0	6	5	4	9	1	31
24	3	6	4	0	3	1	31
25	0	5	2	4	8	1	31
26	4	0	7	2	7	1	31
27	0	1	4	3	1	1	31
28	2	0	5	8	10	1	31
29	2	0	3	6	5	1	31
30	6	0	5	3	6	1	31
31	0	0	0	0	0	0
